VER
2

OBJSENSE
MAX

PSDVAR
6
3
3
3
3
3
3

PSDVARRANK1
6
0
1
2
3
4
5

VAR
15 1
L+ 15

INT
9
0
3
6
1
4
7
2
5
8

CON
43 2
L= 5
L- 38

OBJACOORD
6
9 1.0
12 1.0
10 1.0
13 1.0
11 1.0
14 1.0

FCOORD
234
0 0 0 0 -0.113528445688638
0 3 0 0 0.113528445688638
0 0 1 0 0.4003661451145324
0 3 1 0 -0.4003661451145324
0 0 1 1 -0.09186067144188656
0 3 1 1 0.09186067144188656
0 0 2 0 -0.5083771364068891
0 3 2 0 0.5083771364068891
0 0 2 1 -0.9412294774676309
0 3 2 1 0.9412294774676309
0 0 2 2 1.7848298388668364
0 3 2 2 -1.7848298388668364
0 1 0 0 -0.113528445688638
0 4 0 0 0.113528445688638
0 1 1 0 0.4003661451145324
0 4 1 0 -0.4003661451145324
0 1 1 1 -0.09186067144188656
0 4 1 1 0.09186067144188656
0 1 2 0 -0.5083771364068891
0 4 2 0 0.5083771364068891
0 1 2 1 -0.9412294774676309
0 4 2 1 0.9412294774676309
0 1 2 2 1.7848298388668364
0 4 2 2 -1.7848298388668364
0 2 0 0 -0.113528445688638
0 5 0 0 0.113528445688638
0 2 1 0 0.4003661451145324
0 5 1 0 -0.4003661451145324
0 2 1 1 -0.09186067144188656
0 5 1 1 0.09186067144188656
0 2 2 0 -0.5083771364068891
0 5 2 0 0.5083771364068891
0 2 2 1 -0.9412294774676309
0 5 2 1 0.9412294774676309
0 2 2 2 1.7848298388668364
0 5 2 2 -1.7848298388668364
1 0 0 0 -0.2001889862162841
1 3 0 0 0.2001889862162841
1 0 1 0 1.399845977486357
1 3 1 0 -1.399845977486357
1 0 1 1 0.9270719731616963
1 3 1 1 -0.9270719731616963
1 0 2 0 0.01095859833059254
1 3 2 0 -0.01095859833059254
1 0 2 1 -0.16765872155385514
1 3 2 1 0.16765872155385514
1 0 2 2 0.2881855781305219
1 3 2 2 -0.2881855781305219
1 1 0 0 -0.2001889862162841
1 4 0 0 0.2001889862162841
1 1 1 0 1.399845977486357
1 4 1 0 -1.399845977486357
1 1 1 1 0.9270719731616963
1 4 1 1 -0.9270719731616963
1 1 2 0 0.01095859833059254
1 4 2 0 -0.01095859833059254
1 1 2 1 -0.16765872155385514
1 4 2 1 0.16765872155385514
1 1 2 2 0.2881855781305219
1 4 2 2 -0.2881855781305219
1 2 0 0 -0.2001889862162841
1 5 0 0 0.2001889862162841
1 2 1 0 1.399845977486357
1 5 1 0 -1.399845977486357
1 2 1 1 0.9270719731616963
1 5 1 1 -0.9270719731616963
1 2 2 0 0.01095859833059254
1 5 2 0 -0.01095859833059254
1 2 2 1 -0.16765872155385514
1 5 2 1 0.16765872155385514
1 2 2 2 0.2881855781305219
1 5 2 2 -0.2881855781305219
2 0 0 0 2.265195433572334
2 3 0 0 -2.265195433572334
2 0 1 0 0.19809649078393032
2 3 1 0 -0.19809649078393032
2 0 1 1 -0.9118188768095334
2 3 1 1 0.9118188768095334
2 0 2 0 -0.23690909685643802
2 3 2 0 0.23690909685643802
2 0 2 1 0.1788067037599229
2 3 2 1 -0.1788067037599229
2 0 2 2 0.29963854270211004
2 3 2 2 -0.29963854270211004
2 1 0 0 2.265195433572334
2 4 0 0 -2.265195433572334
2 1 1 0 0.19809649078393032
2 4 1 0 -0.19809649078393032
2 1 1 1 -0.9118188768095334
2 4 1 1 0.9118188768095334
2 1 2 0 -0.23690909685643802
2 4 2 0 0.23690909685643802
2 1 2 1 0.1788067037599229
2 4 2 1 -0.1788067037599229
2 1 2 2 0.29963854270211004
2 4 2 2 -0.29963854270211004
2 2 0 0 2.265195433572334
2 5 0 0 -2.265195433572334
2 2 1 0 0.19809649078393032
2 5 1 0 -0.19809649078393032
2 2 1 1 -0.9118188768095334
2 5 1 1 0.9118188768095334
2 2 2 0 -0.23690909685643802
2 5 2 0 0.23690909685643802
2 2 2 1 0.1788067037599229
2 5 2 1 -0.1788067037599229
2 2 2 2 0.29963854270211004
2 5 2 2 -0.29963854270211004
3 0 0 0 -0.19721845554178322
3 3 0 0 0.19721845554178322
3 0 1 0 -1.4727021893876342
3 3 1 0 1.4727021893876342
3 0 1 1 0.39327517604536055
3 3 1 1 -0.39327517604536055
3 0 2 0 -0.7003518902254693
3 3 2 0 0.7003518902254693
3 0 2 1 -0.26586060469276174
3 3 2 1 0.26586060469276174
3 0 2 2 0.6210113076638747
3 3 2 2 -0.6210113076638747
3 1 0 0 -0.19721845554178322
3 4 0 0 0.19721845554178322
3 1 1 0 -1.4727021893876342
3 4 1 0 1.4727021893876342
3 1 1 1 0.39327517604536055
3 4 1 1 -0.39327517604536055
3 1 2 0 -0.7003518902254693
3 4 2 0 0.7003518902254693
3 1 2 1 -0.26586060469276174
3 4 2 1 0.26586060469276174
3 1 2 2 0.6210113076638747
3 4 2 2 -0.6210113076638747
3 2 0 0 -0.19721845554178322
3 5 0 0 0.19721845554178322
3 2 1 0 -1.4727021893876342
3 5 1 0 1.4727021893876342
3 2 1 1 0.39327517604536055
3 5 1 1 -0.39327517604536055
3 2 2 0 -0.7003518902254693
3 5 2 0 0.7003518902254693
3 2 2 1 -0.26586060469276174
3 5 2 1 0.26586060469276174
3 2 2 2 0.6210113076638747
3 5 2 2 -0.6210113076638747
4 0 0 0 -1.5075225851237388
4 3 0 0 1.5075225851237388
4 0 1 0 -1.1668422494463115
4 3 1 0 1.1668422494463115
4 0 1 1 1.244903010316905
4 3 1 1 -1.244903010316905
4 0 2 0 0.08731186355389609
4 3 2 0 -0.08731186355389609
4 0 2 1 -0.5252846032549144
4 3 2 1 0.5252846032549144
4 0 2 2 0.5493491479917918
4 3 2 2 -0.5493491479917918
4 1 0 0 -1.5075225851237388
4 4 0 0 1.5075225851237388
4 1 1 0 -1.1668422494463115
4 4 1 0 1.1668422494463115
4 1 1 1 1.244903010316905
4 4 1 1 -1.244903010316905
4 1 2 0 0.08731186355389609
4 4 2 0 -0.08731186355389609
4 1 2 1 -0.5252846032549144
4 4 2 1 0.5252846032549144
4 1 2 2 0.5493491479917918
4 4 2 2 -0.5493491479917918
4 2 0 0 -1.5075225851237388
4 5 0 0 1.5075225851237388
4 2 1 0 -1.1668422494463115
4 5 1 0 1.1668422494463115
4 2 1 1 1.244903010316905
4 5 1 1 -1.244903010316905
4 2 2 0 0.08731186355389609
4 5 2 0 -0.08731186355389609
4 2 2 1 -0.5252846032549144
4 5 2 1 0.5252846032549144
4 2 2 2 0.5493491479917918
4 5 2 2 -0.5493491479917918
5 0 0 0 1.0
5 3 0 0 1.0
5 0 1 1 1.0
5 3 1 1 1.0
5 0 2 2 1.0
5 3 2 2 1.0
5 1 0 0 1.0
5 4 0 0 1.0
5 1 1 1 1.0
5 4 1 1 1.0
5 1 2 2 1.0
5 4 2 2 1.0
5 2 0 0 1.0
5 5 0 0 1.0
5 2 1 1 1.0
5 5 1 1 1.0
5 2 2 2 1.0
5 5 2 2 1.0
13 0 0 0 -1.0
13 0 1 1 -1.0
13 0 2 2 -1.0
14 1 0 0 -1.0
14 1 1 1 -1.0
14 1 2 2 -1.0
15 2 0 0 -1.0
15 2 1 1 -1.0
15 2 2 2 -1.0
16 3 0 0 -1.0
16 3 1 1 -1.0
16 3 2 2 -1.0
17 4 0 0 -1.0
17 4 1 1 -1.0
17 4 2 2 -1.0
18 5 0 0 -1.0
18 5 1 1 -1.0
18 5 2 2 -1.0
22 0 0 0 1.0
22 0 1 1 1.0
22 0 2 2 1.0
23 1 0 0 1.0
23 1 1 1 1.0
23 1 2 2 1.0
24 2 0 0 1.0
24 2 1 1 1.0
24 2 2 2 1.0
25 3 0 0 1.0
25 3 1 1 1.0
25 3 2 2 1.0
26 4 0 0 1.0
26 4 1 1 1.0
26 4 2 2 1.0
27 5 0 0 1.0
27 5 1 1 1.0
27 5 2 2 1.0

ACOORD
48
6 0 1.0
6 1 1.0
6 2 1.0
7 9 1.0
7 0 -1.0
8 10 1.0
8 1 -1.0
9 11 1.0
9 2 -1.0
10 12 1.0
10 0 -1.0
11 13 1.0
11 1 -1.0
12 14 1.0
12 2 -1.0
13 9 1.0
14 10 1.0
15 11 1.0
16 12 1.0
17 13 1.0
18 14 1.0
19 3 1.0
19 6 1.0
20 4 1.0
20 7 1.0
21 5 1.0
21 8 1.0
28 0 1.0
29 1 1.0
30 2 1.0
31 3 1.0
32 4 1.0
33 5 1.0
34 6 1.0
35 7 1.0
36 8 1.0
37 9 1.0
38 10 1.0
39 11 1.0
40 12 1.0
41 13 1.0
42 14 1.0
22 3 -1.0
23 4 -1.0
24 5 -1.0
25 6 -1.0
26 7 -1.0
27 8 -1.0

BCOORD
20
5 -1.0
6 -1.0
19 -1.0
20 -1.0
21 -1.0
28 -1.0
29 -1.0
30 -1.0
31 -1.0
32 -1.0
33 -1.0
34 -1.0
35 -1.0
36 -1.0
37 -1.0
38 -1.0
39 -1.0
40 -1.0
41 -1.0
42 -1.0

